
******************************************************************************
This program contains Ipopt, a library for large-scale nonlinear optimization.
 Ipopt is released as open source code under the Eclipse Public License (EPL).
         For more information visit http://projects.coin-or.org/Ipopt

This version of Ipopt was compiled from source code available at
    https://github.com/IDAES/Ipopt as part of the Institute for the Design of
    Advanced Energy Systems Process Systems Engineering Framework (IDAES PSE
    Framework) Copyright (c) 2018-2019. See https://github.com/IDAES/idaes-pse.

This version of Ipopt was compiled using HSL, a collection of Fortran codes
    for large-scale scientific computation.  All technical papers, sales and
    publicity material resulting from use of the HSL codes within IPOPT must
    contain the following acknowledgement:
        HSL, a collection of Fortran codes for large-scale scientific
        computation. See http://www.hsl.rl.ac.uk.
******************************************************************************

This is Ipopt version 3.13.2, running with linear solver ma27.

Number of nonzeros in equality constraint Jacobian...:      928
Number of nonzeros in inequality constraint Jacobian.:        0
Number of nonzeros in Lagrangian Hessian.............:      806

Total number of variables............................:      403
                     variables with only lower bounds:      124
                variables with lower and upper bounds:      217
                     variables with only upper bounds:        0
Total number of equality constraints.................:      402
Total number of inequality constraints...............:        0
        inequality constraints with only lower bounds:        0
   inequality constraints with lower and upper bounds:        0
        inequality constraints with only upper bounds:        0

iter    objective    inf_pr   inf_du lg(mu)  ||d||  lg(rg) alpha_du alpha_pr  ls
   0  0.0000000e+00 1.13e+00 2.84e-14  -1.0 0.00e+00    -  0.00e+00 0.00e+00   0
   1  1.9128885e-02 9.39e-01 1.13e+04  -1.0 7.02e+04    -  5.28e-01 1.82e-01h  1
   2  1.9732490e-02 9.34e-01 1.13e+04  -1.0 1.00e+05    -  5.39e-01 4.41e-03h  1
   3  8.3297156e-01 6.86e-01 1.01e+04  -1.0 1.74e+05    -  5.23e-01 3.01e-01h  1
   4  9.4292246e+00 1.67e-01 1.52e+03  -1.0 1.30e+05    -  7.45e-01 9.90e-01h  1
   5  1.0570097e+01 1.40e-02 1.54e+02  -1.0 1.07e+04    -  9.73e-01 9.90e-01h  1
   6  1.0590438e+01 2.37e-04 4.11e+03  -1.0 3.98e+02    -  9.67e-01 9.90e-01h  1
   7  1.0599816e+01 2.22e-04 6.42e+06  -1.0 1.38e+03    -  4.27e-01 6.19e-02f  5
   8  1.0874271e+01 1.98e-04 5.75e+06  -1.0 2.01e+04    -  1.30e-01 1.24e-01f  4
   9  1.1121400e+01 7.71e-05 7.13e+06  -1.0 2.24e+03    -  6.54e-01 9.90e-01h  1
iter    objective    inf_pr   inf_du lg(mu)  ||d||  lg(rg) alpha_du alpha_pr  ls
  10  1.1637694e+01 2.77e-05 4.73e+04  -1.0 4.58e+03    -  9.90e-01 9.90e-01H  1
  11  1.0585407e+01 1.26e-03 1.69e+09  -2.5 1.31e+04    -  9.97e-01 7.19e-01f  1
  12  1.0592559e+01 4.95e-06 6.56e+07  -2.5 6.80e+01    -  1.00e+00 9.97e-01h  1
  13  1.0592106e+01 1.35e-08 2.15e+10  -2.5 4.14e+00    -  1.00e+00 9.97e-01h  1
In iteration 13, 31 Slacks too small, adjusting variable bounds
  14  1.0592104e+01 3.84e-11 7.60e+12  -2.5 1.86e-02    -  1.00e+00 9.97e-01h  1
  15  1.0592104e+01 3.43e-12 2.49e-01  -2.5 5.27e-05    -  1.00e+00 1.00e+00h  1
  16  1.0592009e+01 2.11e-11 7.43e+12  -9.0 3.03e+01    -  1.00e+00 2.89e-02f  6
  17  1.0589044e+01 1.75e-11 3.55e+09  -9.0 2.71e+01    -  1.00e+00 1.00e+00F  1
  18  1.0589044e+01 3.74e-12 5.40e-07  -9.0 8.42e-06    -  1.00e+00 1.00e+00h  1

Number of Iterations....: 18

                                   (scaled)                 (unscaled)
Objective...............:   1.0589043903377171e+01    1.0589043903377171e+01
Dual infeasibility......:   5.3970143198966980e-07    5.3970143198966980e-07
Constraint violation....:   3.7365666116784269e-12    3.7365666116784269e-12
Complementarity.........:   9.0909344817912864e-10    9.0909344817912864e-10
Overall NLP error.......:   3.4083421239971748e-10    5.3970143198966980e-07


Number of objective function evaluations             = 39
Number of objective gradient evaluations             = 19
Number of equality constraint evaluations            = 39
Number of inequality constraint evaluations          = 0
Number of equality constraint Jacobian evaluations   = 19
Number of inequality constraint Jacobian evaluations = 0
Number of Lagrangian Hessian evaluations             = 18
Total CPU secs in IPOPT (w/o function evaluations)   =      0.034
Total CPU secs in NLP function evaluations           =      0.425

EXIT: Optimal Solution Found.
